14° run output:
{
    "Function": "kroA750.tsp",
    "Problem dimension": [
        710,
        713,
        338,
        473,
        255,
        394,
        225,
        59,
        282,
        285,
        501,
        560,
        241,
        137,
        356,
        72,
        292,
        730,
        606,
        303,
        469,
        436,
        40,
        231,
        69,
        484,
        3,
        15,
        567,
        304,
        358,
        383,
        715,
        737,
        235,
        214,
        92,
        655,
        698,
        4,
        367,
        644,
        205,
        513,
        353,
        572,
        200,
        654,
        525,
        741,
        459,
        720,
        246,
        431,
        734,
        640,
        681,
        659,
        337,
        327,
        0,
        259,
        470,
        704,
        695,
        243,
        635,
        84,
        124,
        602,
        315,
        481,
        523,
        637,
        196,
        213,
        373,
        11,
        476,
        275,
        382,
        96,
        662,
        422,
        211,
        585,
        37,
        217,
        426,
        387,
        731,
        197,
        364,
        723,
        99,
        116,
        187,
        164,
        510,
        542,
        471,
        658,
        551,
        483,
        61,
        688,
        210,
        233,
        343,
        13,
        714,
        472,
        665,
        672,
        82,
        302,
        321,
        47,
        498,
        178,
        14,
        416,
        238,
        244,
        670,
        154,
        342,
        537,
        467,
        70,
        41,
        273,
        141,
        134,
        16,
        405,
        50,
        601,
        375,
        594,
        52,
        173,
        541,
        35,
        446,
        236,
        727,
        85,
        450,
        552,
        571,
        12,
        262,
        514,
        732,
        278,
        633,
        512,
        588,
        147,
        437,
        301,
        240,
        538,
        183,
        79,
        463,
        281,
        135,
        268,
        724,
        566,
        274,
        592,
        573,
        745,
        557,
        66,
        554,
        617,
        309,
        247,
        194,
        330,
        216,
        181,
        529,
        311,
        101,
        209,
        739,
        376,
        561,
        728,
        729,
        284,
        495,
        667,
        357,
        2,
        646,
        260,
        532,
        227,
        108,
        597,
        329,
        419,
        93,
        256,
        171,
        254,
        558,
        716,
        237,
        686,
        711,
        491,
        706,
        675,
        160,
        692,
        29,
        22,
        575,
        272,
        432,
        24,
        258,
        453,
        673,
        110,
        546,
        80,
        656,
        65,
        189,
        433,
        305,
        162,
        308,
        312,
        628,
        490,
        198,
        94,
        390,
        208,
        113,
        334,
        170,
        30,
        563,
        46,
        580,
        106,
        747,
        632,
        195,
        136,
        175,
        527,
        705,
        193,
        477,
        257,
        461,
        74,
        20,
        593,
        454,
        123,
        423,
        206,
        242,
        276,
        296,
        131,
        402,
        569,
        749,
        518,
        346,
        188,
        618,
        648,
        448,
        503,
        132,
        603,
        45,
        130,
        288,
        63,
        700,
        438,
        19,
        98,
        103,
        531,
        156,
        413,
        615,
        702,
        27,
        619,
        403,
        100,
        549,
        97,
        401,
        582,
        115,
        174,
        62,
        677,
        350,
        669,
        333,
        577,
        71,
        586,
        38,
        266,
        559,
        485,
        425,
        366,
        517,
        613,
        479,
        464,
        671,
        708,
        612,
        133,
        323,
        636,
        265,
        718,
        6,
        434,
        650,
        410,
        555,
        639,
        600,
        609,
        111,
        414,
        604,
        10,
        158,
        9,
        289,
        465,
        112,
        264,
        320,
        155,
        690,
        220,
        146,
        359,
        441,
        219,
        385,
        504,
        400,
        336,
        430,
        182,
        64,
        530,
        424,
        455,
        253,
        548,
        630,
        682,
        271,
        458,
        709,
        511,
        144,
        293,
        482,
        642,
        392,
        607,
        75,
        104,
        224,
        328,
        202,
        48,
        28,
        397,
        149,
        579,
        584,
        83,
        297,
        49,
        568,
        314,
        611,
        565,
        379,
        295,
        21,
        456,
        310,
        362,
        599,
        725,
        623,
        591,
        299,
        331,
        365,
        457,
        117,
        509,
        172,
        344,
        733,
        319,
        428,
        449,
        576,
        355,
        742,
        653,
        184,
        701,
        215,
        32,
        543,
        221,
        352,
        234,
        562,
        332,
        404,
        150,
        447,
        389,
        228,
        556,
        270,
        280,
        34,
        269,
        167,
        118,
        5,
        128,
        406,
        641,
        717,
        721,
        736,
        300,
        386,
        685,
        126,
        77,
        625,
        290,
        605,
        26,
        120,
        507,
        109,
        199,
        143,
        377,
        313,
        87,
        186,
        608,
        341,
        520,
        230,
        444,
        638,
        107,
        468,
        298,
        443,
        687,
        339,
        499,
        451,
        699,
        519,
        201,
        570,
        578,
        497,
        380,
        440,
        102,
        55,
        533,
        157,
        39,
        678,
        165,
        121,
        169,
        415,
        283,
        114,
        452,
        712,
        54,
        738,
        726,
        294,
        180,
        478,
        522,
        624,
        142,
        322,
        486,
        466,
        427,
        515,
        629,
        60,
        564,
        368,
        316,
        354,
        152,
        516,
        159,
        412,
        25,
        679,
        51,
        250,
        229,
        17,
        647,
        535,
        325,
        31,
        279,
        620,
        595,
        148,
        335,
        122,
        191,
        218,
        81,
        683,
        371,
        245,
        435,
        488,
        660,
        694,
        287,
        351,
        500,
        42,
        391,
        86,
        151,
        161,
        657,
        361,
        664,
        395,
        691,
        651,
        652,
        550,
        307,
        138,
        277,
        348,
        78,
        703,
        185,
        545,
        719,
        735,
        95,
        487,
        399,
        622,
        249,
        125,
        526,
        689,
        409,
        489,
        496,
        345,
        505,
        232,
        420,
        347,
        58,
        177,
        553,
        384,
        417,
        590,
        340,
        68,
        222,
        192,
        528,
        616,
        239,
        743,
        544,
        381,
        626,
        581,
        176,
        480,
        88,
        23,
        36,
        493,
        8,
        722,
        398,
        502,
        190,
        693,
        494,
        598,
        261,
        676,
        439,
        56,
        263,
        547,
        18,
        212,
        349,
        363,
        204,
        674,
        374,
        744,
        429,
        67,
        166,
        324,
        57,
        475,
        89,
        627,
        291,
        105,
        524,
        91,
        252,
        378,
        317,
        168,
        163,
        33,
        411,
        460,
        369,
        127,
        596,
        129,
        140,
        223,
        326,
        492,
        318,
        583,
        139,
        76,
        372,
        643,
        90,
        539,
        536,
        634,
        248,
        521,
        396,
        445,
        153,
        393,
        43,
        540,
        668,
        746,
        574,
        53,
        421,
        534,
        684,
        707,
        119,
        696,
        697,
        587,
        418,
        645,
        740,
        370,
        663,
        649,
        179,
        666,
        251,
        614,
        306,
        286,
        73,
        388,
        408,
        748,
        508,
        506,
        207,
        631,
        267,
        1,
        474,
        442,
        226,
        610,
        360,
        462,
        7,
        203,
        589,
        407,
        680,
        44,
        621,
        145,
        661
    ],
    "Global Optimum": 0,
    "Algorithm": "Genetic algorithm",
    "Parameters": {
        "population": 30,
        "offspring": 30,
        "mutation probability": 0.0013333333333333333,
        "crossover probability": 0.9
    },
    "Fitness": 1002055,
    "Solution": [
        710,
        713,
        338,
        473,
        255,
        394,
        225,
        59,
        282,
        285,
        501,
        560,
        241,
        137,
        356,
        72,
        292,
        730,
        606,
        303,
        469,
        436,
        40,
        231,
        69,
        484,
        3,
        15,
        567,
        304,
        358,
        383,
        715,
        737,
        235,
        214,
        92,
        655,
        698,
        4,
        367,
        644,
        205,
        513,
        353,
        572,
        200,
        654,
        525,
        741,
        459,
        720,
        246,
        431,
        734,
        640,
        681,
        659,
        337,
        327,
        0,
        259,
        470,
        704,
        695,
        243,
        635,
        84,
        124,
        602,
        315,
        481,
        523,
        637,
        196,
        213,
        373,
        11,
        476,
        275,
        382,
        96,
        662,
        422,
        211,
        585,
        37,
        217,
        426,
        387,
        731,
        197,
        364,
        723,
        99,
        116,
        187,
        164,
        510,
        542,
        471,
        658,
        551,
        483,
        61,
        688,
        210,
        233,
        343,
        13,
        714,
        472,
        665,
        672,
        82,
        302,
        321,
        47,
        498,
        178,
        14,
        416,
        238,
        244,
        670,
        154,
        342,
        537,
        467,
        70,
        41,
        273,
        141,
        134,
        16,
        405,
        50,
        601,
        375,
        594,
        52,
        173,
        541,
        35,
        446,
        236,
        727,
        85,
        450,
        552,
        571,
        12,
        262,
        514,
        732,
        278,
        633,
        512,
        588,
        147,
        437,
        301,
        240,
        538,
        183,
        79,
        463,
        281,
        135,
        268,
        724,
        566,
        274,
        592,
        573,
        745,
        557,
        66,
        554,
        617,
        309,
        247,
        194,
        330,
        216,
        181,
        529,
        311,
        101,
        209,
        739,
        376,
        561,
        728,
        729,
        284,
        495,
        667,
        357,
        2,
        646,
        260,
        532,
        227,
        108,
        597,
        329,
        419,
        93,
        256,
        171,
        254,
        558,
        716,
        237,
        686,
        711,
        491,
        706,
        675,
        160,
        692,
        29,
        22,
        575,
        272,
        432,
        24,
        258,
        453,
        673,
        110,
        546,
        80,
        656,
        65,
        189,
        433,
        305,
        162,
        308,
        312,
        628,
        490,
        198,
        94,
        390,
        208,
        113,
        334,
        170,
        30,
        563,
        46,
        580,
        106,
        747,
        632,
        195,
        136,
        175,
        527,
        705,
        193,
        477,
        257,
        461,
        74,
        20,
        593,
        454,
        123,
        423,
        206,
        242,
        276,
        296,
        131,
        402,
        569,
        749,
        518,
        346,
        188,
        618,
        648,
        448,
        503,
        132,
        603,
        45,
        130,
        288,
        63,
        700,
        438,
        19,
        98,
        103,
        531,
        156,
        413,
        615,
        702,
        27,
        619,
        403,
        100,
        549,
        97,
        401,
        582,
        115,
        174,
        62,
        677,
        350,
        669,
        333,
        577,
        71,
        586,
        38,
        266,
        559,
        485,
        425,
        366,
        517,
        613,
        479,
        464,
        671,
        708,
        612,
        133,
        323,
        636,
        265,
        718,
        6,
        434,
        650,
        410,
        555,
        639,
        600,
        609,
        111,
        414,
        604,
        10,
        158,
        9,
        289,
        465,
        112,
        264,
        320,
        155,
        690,
        220,
        146,
        359,
        441,
        219,
        385,
        504,
        400,
        336,
        430,
        182,
        64,
        530,
        424,
        455,
        253,
        548,
        630,
        682,
        271,
        458,
        709,
        511,
        144,
        293,
        482,
        642,
        392,
        607,
        75,
        104,
        224,
        328,
        202,
        48,
        28,
        397,
        149,
        579,
        584,
        83,
        297,
        49,
        568,
        314,
        611,
        565,
        379,
        295,
        21,
        456,
        310,
        362,
        599,
        725,
        623,
        591,
        299,
        331,
        365,
        457,
        117,
        509,
        172,
        344,
        733,
        319,
        428,
        449,
        576,
        355,
        742,
        653,
        184,
        701,
        215,
        32,
        543,
        221,
        352,
        234,
        562,
        332,
        404,
        150,
        447,
        389,
        228,
        556,
        270,
        280,
        34,
        269,
        167,
        118,
        5,
        128,
        406,
        641,
        717,
        721,
        736,
        300,
        386,
        685,
        126,
        77,
        625,
        290,
        605,
        26,
        120,
        507,
        109,
        199,
        143,
        377,
        313,
        87,
        186,
        608,
        341,
        520,
        230,
        444,
        638,
        107,
        468,
        298,
        443,
        687,
        339,
        499,
        451,
        699,
        519,
        201,
        570,
        578,
        497,
        380,
        440,
        102,
        55,
        533,
        157,
        39,
        678,
        165,
        121,
        169,
        415,
        283,
        114,
        452,
        712,
        54,
        738,
        726,
        294,
        180,
        478,
        522,
        624,
        142,
        322,
        486,
        466,
        427,
        515,
        629,
        60,
        564,
        368,
        316,
        354,
        152,
        516,
        159,
        412,
        25,
        679,
        51,
        250,
        229,
        17,
        647,
        535,
        325,
        31,
        279,
        620,
        595,
        148,
        335,
        122,
        191,
        218,
        81,
        683,
        371,
        245,
        435,
        488,
        660,
        694,
        287,
        351,
        500,
        42,
        391,
        86,
        151,
        161,
        657,
        361,
        664,
        395,
        691,
        651,
        652,
        550,
        307,
        138,
        277,
        348,
        78,
        703,
        185,
        545,
        719,
        735,
        95,
        487,
        399,
        622,
        249,
        125,
        526,
        689,
        409,
        489,
        496,
        345,
        505,
        232,
        420,
        347,
        58,
        177,
        553,
        384,
        417,
        590,
        340,
        68,
        222,
        192,
        528,
        616,
        239,
        743,
        544,
        381,
        626,
        581,
        176,
        480,
        88,
        23,
        36,
        493,
        8,
        722,
        398,
        502,
        190,
        693,
        494,
        598,
        261,
        676,
        439,
        56,
        263,
        547,
        18,
        212,
        349,
        363,
        204,
        674,
        374,
        744,
        429,
        67,
        166,
        324,
        57,
        475,
        89,
        627,
        291,
        105,
        524,
        91,
        252,
        378,
        317,
        168,
        163,
        33,
        411,
        460,
        369,
        127,
        596,
        129,
        140,
        223,
        326,
        492,
        318,
        583,
        139,
        76,
        372,
        643,
        90,
        539,
        536,
        634,
        248,
        521,
        396,
        445,
        153,
        393,
        43,
        540,
        668,
        746,
        574,
        53,
        421,
        534,
        684,
        707,
        119,
        696,
        697,
        587,
        418,
        645,
        740,
        370,
        663,
        649,
        179,
        666,
        251,
        614,
        306,
        286,
        73,
        388,
        408,
        748,
        508,
        506,
        207,
        631,
        267,
        1,
        474,
        442,
        226,
        610,
        360,
        462,
        7,
        203,
        589,
        407,
        680,
        44,
        621,
        145,
        661
    ],
    "Nb of functions evaluations": 50010,
    "Computational time in seconds": 794.2208948135376,
    "Stopping criterion in evaluations": 50000
}